
******************************************************************************
This program contains Ipopt, a library for large-scale nonlinear optimization.
 Ipopt is released as open source code under the Eclipse Public License (EPL).
         For more information visit http://projects.coin-or.org/Ipopt
******************************************************************************

This is Ipopt version 3.12.6, running with linear solver ma57.

Number of nonzeros in equality constraint Jacobian...:        0
Number of nonzeros in inequality constraint Jacobian.:     5997
Number of nonzeros in Lagrangian Hessian.............:     2000

Total number of variables............................:     2000
                     variables with only lower bounds:        1
                variables with lower and upper bounds:        0
                     variables with only upper bounds:        0
Total number of equality constraints.................:        0
Total number of inequality constraints...............:     2000
        inequality constraints with only lower bounds:     2000
   inequality constraints with lower and upper bounds:        0
        inequality constraints with only upper bounds:        0

iter    objective    inf_pr   inf_du lg(mu)  ||d||  lg(rg) alpha_du alpha_pr  ls
   0  2.7312936e+02 0.00e+00 1.18e+00  -1.0 0.00e+00    -  0.00e+00 0.00e+00   0
   1  1.1210355e+02 6.27e-03 7.51e-01  -1.0 8.73e-01    -  3.63e-01 3.63e-01f  1
   2  4.2503584e+01 3.81e-03 3.05e+00  -1.7 6.13e-01    -  6.25e-01 3.95e-01f  1
   3  1.7486061e+01 2.31e-03 1.67e+01  -1.7 4.27e-01    -  1.00e+00 3.93e-01f  1
   4  8.7033251e+00 1.39e-03 3.29e+01  -1.7 3.26e-01    -  1.00e+00 3.97e-01h  1
   5  6.1243739e+00 8.45e-04 5.86e+01  -1.7 2.60e-01    -  1.00e+00 3.92e-01h  1
   6  5.9054109e+00 5.12e-04 9.90e+01  -1.7 2.45e-01    -  1.00e+00 3.94e-01h  1
   7  6.7715888e+00 3.10e-04 1.66e+02  -1.7 2.68e-01    -  1.00e+00 3.94e-01h  1
   8  8.3061911e+00 1.88e-04 2.76e+02  -1.7 2.82e-01    -  1.00e+00 3.94e-01h  1
   9  1.0434709e+01 1.14e-04 4.57e+02  -1.7 2.91e-01    -  1.00e+00 3.94e-01h  1
iter    objective    inf_pr   inf_du lg(mu)  ||d||  lg(rg) alpha_du alpha_pr  ls
  10  1.3228137e+01 6.89e-05 7.58e+02  -1.7 2.96e-01    -  1.00e+00 3.94e-01h  1
  11  1.6841608e+01 4.17e-05 1.26e+03  -1.7 3.00e-01    -  1.00e+00 3.94e-01h  1
  12  2.1497456e+01 2.53e-05 2.08e+03  -1.7 3.02e-01    -  1.00e+00 3.93e-01h  1
  13  2.7491356e+01 1.54e-05 3.46e+03  -1.7 3.04e-01    -  1.00e+00 3.93e-01h  1
  14  3.5210318e+01 9.36e-06 5.76e+03  -1.7 3.07e-01    -  1.00e+00 3.91e-01h  1
  15  4.5182375e+01 5.71e-06 9.63e+03  -1.7 3.09e-01    -  1.00e+00 3.90e-01h  1
  16  5.8124206e+01 3.50e-06 1.61e+04  -1.7 3.11e-01    -  1.00e+00 3.87e-01h  1
  17  7.2858418e+01 2.24e-06 2.93e+04  -1.7 3.21e-01    -  1.00e+00 3.61e-01h  1
  18  9.8381758e+01 1.29e-06 4.52e+04  -1.7 3.50e-01    -  1.00e+00 4.23e-01h  1
  19  1.7720674e+02 3.17e-07 2.28e+04  -1.7 3.25e-01    -  1.00e+00 7.42e-01h  1
iter    objective    inf_pr   inf_du lg(mu)  ||d||  lg(rg) alpha_du alpha_pr  ls
  20  1.7821890e+02 2.95e-07 3.10e+04  -1.7 2.08e-01    -  1.00e+00 2.04e-02f  6
  21  2.1591155e+02 0.00e+00 8.73e+03  -1.7 1.97e-01    -  1.00e+00 7.15e-01h  1
  22  2.2536690e+02 0.00e+00 3.87e+03  -1.7 5.71e-02    -  1.00e+00 5.83e-01h  1
  23  2.3224065e+02 0.00e+00 2.00e-07  -1.7 2.42e-02    -  1.00e+00 1.00e+00h  1
  24  2.0344360e+02 0.00e+00 1.88e+04  -5.7 2.99e-01    -  1.84e-01 1.00e+00f  1
  25  1.9707579e+02 0.00e+00 5.28e-11  -5.7 6.30e-02    -  1.00e+00 1.00e+00f  1
  26  1.9618567e+02 0.00e+00 3.60e+01  -8.6 2.69e-02    -  9.35e-01 1.00e+00f  1
  27  1.9617748e+02 0.00e+00 4.70e-11  -8.6 8.65e-04    -  1.00e+00 1.00e+00f  1

Number of Iterations....: 27

                                   (scaled)                 (unscaled)
Objective...............:   1.9617747912633109e+02    1.9617747912633109e+02
Dual infeasibility......:   4.6989967472654826e-11    4.6989967472654826e-11
Constraint violation....:   0.0000000000000000e+00    0.0000000000000000e+00
Complementarity.........:   3.2733596534987796e-07    3.2733596534987796e-07
Overall NLP error.......:   4.3031276668177445e-10    3.2733596534987796e-07


Number of objective function evaluations             = 33
Number of objective gradient evaluations             = 28
Number of equality constraint evaluations            = 0
Number of inequality constraint evaluations          = 33
Number of equality constraint Jacobian evaluations   = 0
Number of inequality constraint Jacobian evaluations = 28
Number of Lagrangian Hessian evaluations             = 27
Total CPU secs in IPOPT (w/o function evaluations)   =      0.073
Total CPU secs in NLP function evaluations           =      0.023

EXIT: Optimal Solution Found.

************************ CUTEst statistics ************************


 Package used            :  IPOPT
 Problem                 :  YAO       
 # variables             =            2002
 # constraints           =            2000
 # objective functions   =        0.6200000E+02
 # objective gradients   =        0.2900000E+02
 # objective Hessians    =        0.2800000E+02
 # Hessian-vector prdct  =        0.0000000E+00
 # constraints functions =        0.6300000E+02
 # constraints gradients =        0.3000000E+02
 # constraints Hessians  =        0.2800000E+02
 Exit code               =               0
 Final f                 =   0.1961775E+03
 Set up time             =            0.05 seconds
 Solve time              =            0.30 seconds


******************************************************************

System Time =       0.0780000016 s.
